0 0 0 0
0 1 0 0
0 2 1 0
0 3 0 0
0 4 0 6
0 5 0 4
0 6 0 4
0 7 1 6
0 8 0 11
0 9 0 22
0 10 0 6
0 11 0 10
0 12 0 7
0 13 1 6
0 14 1 14
0 15 0 9
0 16 0 10
0 17 1 9
0 18 0 11
0 19 0 24
0 20 1 11
0 21 0 14
0 22 2 14
0 23 0 18
0 24 0 19
0 25 2 22
0 26 0 24
0 27 0 26
0 28 2 22
0 29 0 29
0 30 0 30
0 31 0 31
